proyfinal/src/viki/013/experimentInOfficeAgust.take6.output/834ecd36-f331-4f41-871e-eba4a66ae22e.als.dat
{'cnf.clauses': '118081',
 'cnf.totvars': '69608',
 'conflict literals': '1',
 'conflicts': '2',
 'decisions': '845',
 'memused.mb': '16.04',
 'outcome': 'UNSAT',
 'propagations': '19004',
 'restarts': '1',
 'solver.msecs': 28,
 'task.msecs': 95}
