proyfinal/src/viki/013/experimentInOfficeAgust.take6.output/834ecd36-f331-4f41-871e-eba4a66ae22e.als.out
Reading from standard input... Use '--help' for help.
============================[ Problem Statistics ]=============================
|                                                                             |
|  Number of variables:         69608                                         |
|  Number of clauses:          118081                                         |
|  Parse time:                   0.02 s                                       |
|                                                                             |
============================[ Search Statistics ]==============================
| Conflicts |          ORIGINAL         |          LEARNT          | Progress |
|           |    Vars  Clauses Literals |    Limit  Clauses Lit/Cl |          |
===============================================================================
===============================================================================
restarts              : 1
conflicts             : 2              (70 /sec)
decisions             : 845            (0.00 % random) (29786 /sec)
propagations          : 19004          (669886 /sec)
conflict literals     : 1              (0.00 % deleted)
Memory used           : 16.04 MB
CPU time              : 0.028369 s

UNSATISFIABLE
